
Gurobi 10.0.2 (mac64[x86], gurobi_cl) logging started Wed Oct 25 12:14:56 2023

Set parameter Username
Set parameter LogFile to value "gurobi.log"
Academic license - for non-commercial use only - expires 2024-08-09
Using license file /Users/phivri/gurobi.lic

Gurobi 10.0.2 (mac64[x86], gurobi_cl) logging started Wed Oct 25 12:15:15 2023

Set parameter Username
Set parameter LogFile to value "gurobi.log"
Academic license - for non-commercial use only - expires 2024-08-09
Using license file /Users/phivri/gurobi.lic

Gurobi 10.0.2 (mac64[x86], gurobi_cl) logging started Wed Oct 25 12:16:39 2023

Set parameter Username
Set parameter LogFile to value "gurobi.log"
Academic license - for non-commercial use only - expires 2024-08-09
Using license file /Users/phivri/gurobi.lic

Gurobi 10.0.2 (mac64[x86], gurobi_cl) logging started Wed Oct 25 12:26:28 2023

Set parameter Username
Set parameter LogFile to value "gurobi.log"
Academic license - for non-commercial use only - expires 2024-08-09
Using license file /Users/phivri/gurobi.lic

Gurobi 10.0.2 (mac64[x86], gurobi_cl) logging started Wed Oct 25 12:35:21 2023

Set parameter Username
Set parameter LogFile to value "gurobi.log"
Academic license - for non-commercial use only - expires 2024-08-09
Using license file /Users/phivri/gurobi.lic
